6 11
95 4
64 67
6 8
70 42
67 18
64 78
21 58
31 3
36 53
76 95
51 83
24 66
3 97
91 41
94 49
18 92
6 65
4 37
17 83
64 84
62 83
82 28
9 52
31 62
81 4
72 11
33 42
9 71
99 78
87 12
75 20
95 41
88 74
58 90
62 14
52 41
12 45
84 86
57 65
92 33
19 66
89 65
42 29
70 31
70 4
62 91
25 38
70 33
79 75
93 64
70 6
56 89
70 52
94 66
87 82
92 28
7 10
77 50
92 8
16 59
35 3
36 67
8 17
95 30
18 44
72 43
92 99
81 30
65 47
85 6
88 97
64 29
30 55
75 77
6 44
80 57
97 95
39 54
0 48
37 49
78 73
9 61
65 4
43 52
58 83
82 86
21 46
85 40
86 62
25 14
88 86
66 36
83 83
42 58
21 11
88 38
92 6
36 44
59 88
